(set-info :Origin "This instance was generated by: BanditFuzz-- an RL fuzzer for SMT solvers" )
(set-info :Author "Joe Scott, Fed Mora, Vijay Ganesh" )
(set-info :Contact "Joe Scott, joseph.scott@uwaterloo.ca")
(set-logic QF_BV)
(declare-const bool_0 Bool)
(declare-const bool_1 Bool)
(declare-const bool_2 Bool)
(declare-const bool_3 Bool)
(declare-const bool_4 Bool)
(declare-const bv_0 (_ BitVec 32))
(declare-const bv_1 (_ BitVec 32))
(declare-const bv_2 (_ BitVec 32))
(declare-const bv_3 (_ BitVec 32))
(declare-const bv_4 (_ BitVec 32))
(assert (bvslt (bvsrem (bvand #xee9304fd  #x8ae96d71 ) (bvsmod bv_1 bv_0)) (bvsmod (bvnor bv_3 #xaabeb895 ) (bvmul bv_4 bv_3))))
(assert (bvult (bvand (bvsub bv_1 bv_0) (bvsub bv_3 #x960e8667 )) (bvxor (bvxor bv_3 bv_3) (bvnor bv_4 #xd04057a5 ))))
(assert (and (bvult (bvshl #xb844cd98  bv_1) (bvsub #x074e5a45  #xb05f3161 )) (or (bvslt bv_4 #xd1432db6 ) (bvsgt bv_4 #x162f2777 ))))
(assert (bvsle (bvurem (bvurem #x81bc09f5  #x8c8d266e ) (bvsdiv bv_3 #x7f0b4a91 )) (bvsrem (bvshl #x6a870634  #x47d5ac7c ) (bvsdiv #x366ff52a  #xe1822370 ))))
(assert (bvslt (bvxnor (bvsub bv_0 bv_0) (bvxor bv_4 bv_4)) (bvurem (bvxnor bv_1 bv_3) (bvor #x29183cc1  bv_3))))
(check-sat)
(exit)
